\ LP format - for model browsing. Use MPS format to capture full model detail.
Minimize
  - 4 x1 - 5 x2
Subject To
 constr(0): 3 x0 + 3 x1 + 5 x2 >= -0
 constr(1): - 4 x0 - 5 x1 <= 12
 constr(2): - 3 x0 - 5 x1 - 3 x2 >= -4
 constr(3): 2 x0 - 4 x1 - 4 x2 <= -0
Bounds
 x0 <= 4
 x1 <= 4
 x2 <= 2
End
